p cnf 19 71
-8 -11 -15 0
4 -10 15 0
-13 14 -19 0
-2 -6 -9 0
5 -9 -10 0
-6 8 -17 0
-6 10 16 0
5 -11 -12 0
2 5 8 0
-6 -7 15 0
-3 -13 -15 0
-2 -9 16 0
1 -5 17 0
-4 6 -16 0
2 -7 -9 0
-4 -10 18 0
-2 3 14 0
2 6 17 0
-2 -4 -14 0
-9 -12 -18 0
-4 -9 15 0
-4 6 -19 0
-1 -7 15 0
-1 -5 13 0
-6 16 -17 0
-2 -3 16 0
3 10 -16 0
6 -10 18 0
-1 -8 -11 0
-3 -8 18 0
-5 -18 -19 0
5 10 -14 0
-4 14 -15 0
7 -8 16 0
-5 13 18 0
-9 14 -18 0
-3 -12 -15 0
-2 -7 9 0
-1 3 -10 0
-5 -15 19 0
-5 -12 18 0
1 -7 -15 0
-9 14 -16 0
-5 9 13 0
-8 -15 -16 0
-2 13 -14 0
9 -18 19 0
9 10 19 0
-4 15 -19 0
9 13 -15 0
-5 -9 10 0
1 2 3 0
-3 -10 15 0
-3 -7 -13 0
-7 -11 -17 0
8 12 14 0
5 -9 -12 0
-5 -7 -18 0
-6 -7 -12 0
15 17 -18 0
2 -6 -10 0
-7 8 -12 0
1 6 -15 0
-4 13 -15 0
2 8 18 0
3 -4 -12 0
-8 14 18 0
2 12 13 0
6 15 -17 0
-2 -11 -19 0
1 4 15 0
